p edge 40 240
e 1 8
e 1 8
e 1 15
e 1 29
e 1 29
e 1 33
e 2 3
e 2 3
e 2 9
e 2 28
e 2 29
e 2 33
e 3 9
e 3 25
e 3 30
e 3 36
e 3 38
e 3 40
e 4 6
e 4 18
e 4 25
e 4 27
e 4 37
e 4 37
e 5 2
e 5 2
e 5 8
e 5 12
e 5 32
e 5 36
e 6 3
e 6 14
e 6 24
e 6 29
e 6 35
e 6 38
e 7 3
e 7 4
e 7 11
e 7 16
e 7 31
e 7 40
e 8 3
e 8 12
e 8 12
e 8 27
e 8 36
e 8 37
e 9 14
e 9 21
e 9 25
e 9 27
e 9 27
e 9 38
e 10 7
e 10 9
e 10 21
e 10 27
e 10 32
e 10 34
e 11 27
e 11 27
e 11 28
e 11 29
e 11 38
e 11 39
e 12 4
e 12 6
e 12 15
e 12 26
e 12 34
e 12 37
e 13 9
e 13 19
e 13 27
e 13 30
e 13 30
e 13 34
e 14 19
e 14 21
e 14 22
e 14 24
e 14 28
e 14 34
e 15 3
e 15 3
e 15 8
e 15 17
e 15 24
e 15 35
e 16 4
e 16 12
e 16 14
e 16 21
e 16 22
e 16 24
e 17 5
e 17 15
e 17 21
e 17 30
e 17 33
e 17 33
e 18 15
e 18 27
e 18 28
e 18 31
e 18 34
e 18 39
e 19 4
e 19 9
e 19 12
e 19 25
e 19 31
e 19 39
e 20 3
e 20 6
e 20 13
e 20 16
e 20 19
e 20 22
e 21 14
e 21 16
e 21 28
e 21 29
e 21 35
e 21 38
e 22 4
e 22 4
e 22 10
e 22 14
e 22 26
e 22 36
e 23 25
e 23 29
e 23 32
e 23 33
e 23 38
e 23 39
e 24 3
e 24 8
e 24 9
e 24 19
e 24 19
e 24 31
e 25 9
e 25 12
e 25 16
e 25 26
e 25 31
e 25 33
e 26 9
e 26 11
e 26 13
e 26 22
e 26 28
e 26 29
e 27 4
e 27 8
e 27 22
e 27 24
e 27 25
e 27 34
e 28 4
e 28 8
e 28 17
e 28 23
e 28 25
e 28 30
e 29 6
e 29 8
e 29 9
e 29 12
e 29 16
e 29 36
e 30 11
e 30 24
e 30 32
e 30 32
e 30 34
e 30 35
e 31 8
e 31 20
e 31 25
e 31 27
e 31 34
e 31 36
e 32 11
e 32 16
e 32 20
e 32 29
e 32 31
e 32 40
e 33 3
e 33 7
e 33 14
e 33 17
e 33 18
e 33 29
e 34 3
e 34 6
e 34 17
e 34 32
e 34 40
e 34 40
e 35 1
e 35 7
e 35 11
e 35 16
e 35 17
e 35 31
e 36 7
e 36 21
e 36 25
e 36 32
e 36 34
e 36 40
e 37 5
e 37 11
e 37 12
e 37 18
e 37 19
e 37 24
e 38 3
e 38 5
e 38 13
e 38 24
e 38 25
e 38 32
e 39 1
e 39 9
e 39 14
e 39 16
e 39 23
e 39 29
e 40 2
e 40 10
e 40 23
e 40 26
e 40 28
e 40 39
